\ENCODING=ISO-8859-1
\Problem name: Formulacao EEEE :D

Maximize
 obj: x1
Subject To
 c1:  x1 + x7 + x25 + x31  = 1
 c2:  x2 + x8 + x14 + x20  = 1
 c3:  x9 + x15 + x21 + x33  = 1
 c4:  x10 + x16 + x22 + x28  = 1
 c5:  x5 + x23 + x29 + x35  = 1
 c6:  x6 + x18 + x30 + x36  = 1
 c7:  x13 - x15 <= 0
 c8:  x13 - x15 + x17 <= 0
 c9:  x19 - x22 <= 0
 c10: x19 - x22 + x24 <= 0
 c11: x26 - x29 <= 0
 c12: x26 + x27 - x29 <= 0
 c13: x32 + x32 - x36 <= 0
 c14: x32 + x34 - x36 <= 0
 c15: - x1 + x3 + x3 <= 0
 c16: - x1 + x3 + x4 <= 0
 c17: x26 + x27 - x29 <= 0
 c18: x27 + x27 - x29 <= 0
 c19: - x1 + x3 + x4 <= 0
 c20: - x1 + x4 + x4 <= 0
 c21: x32 + x34 - x36 <= 0
 c22: x34 + x34 - x36 <= 0
 c23: - x8 + x11 + x11 <= 0
 c24: - x8 + x11 + x12 <= 0
 c25: x13 - x15 + x17 <= 0
 c26: - x15 + x17 + x17 <= 0
 c27: - x8 + x11 + x12 <= 0
 c28: - x8 + x12 + x12 <= 0
 c29: x19 - x22 + x24 <= 0
 c30: - x22 + x24 + x24 <= 0
 c31: x1 - x1 - x1 + x2 + x5 + x6 >= -1
 c32: x1 - x1 + x2 + x3 + x4 - x8 >= -1
 c33: x1 - x1 + x4 + x5 + x6 - x29 >= -1
 c34: x1 - x1 + x3 + x5 + x6 - x36 >= -1
 c35: - x1 + x7 - x8 + x11 + x12 >= -1
 c36: x7 - x8 + x9 + x10 >= -1
 c37: - x8 + x9 + x10 + x12 - x15 >= -1
 c38: - x8 + x9 + x10 + x11 - x22 >= -1
 c39: - x8 + x13 + x14 - x15 + x16 >= -1
 c40: x14 - x15 + x16 + x18 >= -1
 c41: x14 - x15 + x16 + x17 - x22 >= -1
 c42: x13 - x15 + x17 + x18 - x36 >= -1
 c43: - x8 + x19 + x20 + x21 - x22 >= -1
 c44: - x15 + x20 + x21 - x22 + x24 >= -1
 c45: x20 + x21 - x22 + x23 >= -1
 c46: x19 - x22 + x23 + x24 - x29 >= -1
 c47: - x1 + x25 + x26 - x29 + x30 >= -1
 c48: - x22 + x26 + x27 + x28 - x29 >= -1
 c49: x25 + x28 - x29 + x30 >= -1
 c50: x25 + x27 - x29 + x30 - x36 >= -1
 c51: - x1 + x31 + x32 + x35 - x36 >= -1
 c52: - x15 + x32 + x33 + x34 - x36 >= -1
 c53: - x29 + x31 + x34 + x35 - x36 >= -1
 c54: x31 + x33 + x35 - x36 >= -1
 c55: - x1 + x3 <= 0
 c56: - x1 + x4 <= 0
 c57: - x8 + x11 <= 0
 c58: - x8 + x12 <= 0
 c59: x13 - x15 <= 0
 c60: - x15 + x17 <= 0
 c61: x19 - x22 <= 0
 c62: - x22 + x24 <= 0
 c63: x26 - x29 <= 0
 c64: x27 - x29 <= 0
 c65: x32 - x36 <= 0
 c66: x34 - x36 <= 0
Bounds
 0 <= x1 <= 1
 0 <= x2 <= 1
 0 <= x3 <= 1
 0 <= x4 <= 1
 0 <= x5 <= 1
 0 <= x6 <= 1
 0 <= x7 <= 1
 0 <= x8 <= 1
 0 <= x9 <= 1
 0 <= x10 <= 1
 0 <= x11 <= 1
 0 <= x12 <= 1
 0 <= x13 <= 1
 0 <= x14 <= 1
 0 <= x15 <= 1
 0 <= x16 <= 1
 0 <= x17 <= 1
 0 <= x18 <= 1
 0 <= x19 <= 1
 0 <= x20 <= 1
 0 <= x21 <= 1
 0 <= x22 <= 1
 0 <= x23 <= 1
 0 <= x24 <= 1
 0 <= x25 <= 1
 0 <= x26 <= 1
 0 <= x27 <= 1
 0 <= x28 <= 1
 0 <= x29 <= 1
 0 <= x30 <= 1
 0 <= x31 <= 1
 0 <= x32 <= 1
 0 <= x33 <= 1
 0 <= x34 <= 1
 0 <= x35 <= 1
 0 <= x36 <= 1
Binaries
 x1  x2  x3  x4  x5  x6  x7  x8  x9  x10  x11  x12  x13  x14  x15  x16  x17 
 x18  x19  x20  x21  x22  x23  x24  x25  x26  x27  x28  x29  x30  x31  x32 
 x33  x34  x35  x36 
End
